<instance format="XCSP3" type="CSP">
  <variables>
    <array id="x" size="[63]"> 0..1 </array>
  </variables>
  <constraints>
    <extension>
      <list> x[40..41] x[0] </list>
      <supports> (0,0,1)(0,1,0)(1,0,0)(1,1,1) </supports>
    </extension>
    <extension>
      <list> x[40] x[41] x[39] </list>
      <supports> (0,0,0)(0,1,1)(1,0,1)(1,1,0) </supports>
    </extension>
  </constraints>
</instance>
